language Essence 1.3

letting class be
        function(1 --> 4, 2 --> 8, 3 --> 4, 4 --> 5, 5 --> 6, 6 --> 8, 7 --> 4, 8 --> 8, 9 --> 7, 10 --> 2, 11 --> 6,
                 12 --> 5, 13 --> 3, 14 --> 1, 15 --> 9, 16 --> 2, 17 --> 9, 18 --> 3, 19 --> 8, 20 --> 6, 21 --> 8,
                 22 --> 1, 23 --> 9, 24 --> 7, 25 --> 3, 26 --> 7, 27 --> 4, 28 --> 6)
letting deck_length be 87
letting deck_width be 20
letting length be
        function(1 --> 1, 2 --> 1, 3 --> 1, 4 --> 1, 5 --> 1, 6 --> 1, 7 --> 1, 8 --> 1, 9 --> 1, 10 --> 1, 11 --> 1,
                 12 --> 1, 13 --> 1, 14 --> 1, 15 --> 1, 16 --> 1, 17 --> 1, 18 --> 2, 19 --> 1, 20 --> 2, 21 --> 19,
                 22 --> 1, 23 --> 1, 24 --> 1, 25 --> 8, 26 --> 1, 27 --> 1, 28 --> 1)
letting n_classes be 9
letting n_containers be 28
letting separation be function({7, 9} --> 28)
letting width be
        function(1 --> 8, 2 --> 16, 3 --> 14, 4 --> 14, 5 --> 13, 6 --> 8, 7 --> 1, 8 --> 13, 9 --> 12, 10 --> 13,
                 11 --> 3, 12 --> 5, 13 --> 11, 14 --> 13, 15 --> 15, 16 --> 6, 17 --> 6, 18 --> 18, 19 --> 15,
                 20 --> 2, 21 --> 20, 22 --> 7, 23 --> 6, 24 --> 16, 25 --> 18, 26 --> 4, 27 --> 5, 28 --> 12)
